186648
8,33,82,79,88,56,91,22,11,92,23,75,26,9,27,58,65,43,86,57,0,73,101,60,3,14,102,13,42,78,90,59,95,77,69,100,40,1,6,52,17,83,38,31,74,62,48,36,93,104,2,103,66,37,94,70,10,53,35,84,47,72,32,81,24,44,71,99,50,34,46,49,25,98,18,80,76,39,19,55,89,16,20,21,61,45,85,5,12,51,4,29,28,54,96,30,97,68,87,15,63,67,41,64,105,7